language Essence 1.3

letting class be function(1 --> 2, 2 --> 2, 3 --> 1, 4 --> 1, 5 --> 1, 6 --> 1, 7 --> 1)
letting deck_length be 5
letting deck_width be 100
letting length be function(1 --> 3, 2 --> 3, 3 --> 2, 4 --> 3, 5 --> 5, 6 --> 1, 7 --> 5)
letting n_classes be 2
letting n_containers be 7
letting separation be function()
letting width be function(1 --> 28, 2 --> 4, 3 --> 1, 4 --> 2, 5 --> 36, 6 --> 1, 7 --> 6)
